
Gurobi 6.0.4 (win64) logging started 01/06/17 15:40:45


Gurobi 7.0.2 (win64) logging started 10/09/17 17:58:42


Gurobi 7.0.2 (win64) logging started 10/09/17 17:59:00


Gurobi 7.0.2 (win64) logging started 03/06/18 12:40:29

